p tw 121 18151 2 
1 3 
1 4 
1 5 
1 6 
1 7 
1 8 
1 9 
1 10 
1 11 
1 12 
1 17 
1 23 
1 33 
1 34 
1 41 
1 45 
1 46 
1 56 
1 64 
1 67 
1 71 
1 78 
1 84 
1 89 
1 98 
1 100 
1 103 
1 111 
1 113 
2 3 
2 4 
2 5 
2 6 
2 7 
2 8 
2 9 
2 10 
2 11 
2 13 
2 22 
2 24 
2 31 
2 35 
2 36 
2 46 
2 50 
2 56 
2 57 
2 68 
2 73 
2 79 
2 87 
2 90 
2 92 
2 101 
2 104 
2 112 
2 118 
3 4 
3 5 
3 6 
3 7 
3 8 
3 9 
3 10 
3 11 
3 14 
3 19 
3 24 
3 25 
3 34 
3 36 
3 47 
3 49 
3 58 
3 59 
3 69 
3 72 
3 80 
3 86 
3 91 
3 95 
3 102 
3 110 
3 113 
3 120 
4 5 
4 6 
4 7 
4 8 
4 9 
4 10 
4 11 
4 14 
4 15 
4 26 
4 29 
4 37 
4 38 
4 48 
4 55 
4 59 
4 61 
4 70 
4 75 
4 81 
4 85 
4 89 
4 92 
4 103 
4 109 
4 112 
4 114 
5 6 
5 7 
5 8 
5 9 
5 10 
5 11 
5 13 
5 16 
5 25 
5 27 
5 37 
5 38 
5 45 
5 49 
5 60 
5 63 
5 71 
5 76 
5 82 
5 83 
5 93 
5 97 
5 104 
5 106 
5 115 
5 121 
6 7 
6 8 
6 9 
6 10 
6 11 
6 17 
6 18 
6 28 
6 30 
6 39 
6 42 
6 50 
6 54 
6 58 
6 61 
6 68 
6 72 
6 82 
6 83 
6 94 
6 99 
6 100 
6 105 
6 114 
6 116 
7 8 
7 9 
7 10 
7 11 
7 12 
7 18 
7 28 
7 29 
7 40 
7 43 
7 47 
7 51 
7 57 
7 62 
7 70 
7 73 
7 84 
7 88 
7 95 
7 96 
7 106 
7 108 
7 115 
7 117 
8 9 
8 10 
8 11 
8 16 
8 19 
8 23 
8 30 
8 40 
8 41 
8 48 
8 52 
8 63 
8 65 
8 74 
8 77 
8 80 
8 85 
8 90 
8 96 
8 105 
8 107 
8 118 
8 119 
9 10 
9 11 
9 15 
9 20 
9 31 
9 32 
9 35 
9 42 
9 51 
9 53 
9 64 
9 66 
9 69 
9 75 
9 78 
9 86 
9 93 
9 97 
9 107 
9 108 
9 116 
9 119 
10 11 
10 20 
10 21 
10 26 
10 32 
10 43 
10 44 
10 52 
10 54 
10 60 
10 65 
10 67 
10 76 
10 79 
10 87 
10 94 
10 98 
10 102 
10 109 
10 117 
10 120 
11 21 
11 22 
11 27 
11 33 
11 39 
11 44 
11 53 
11 55 
11 62 
11 66 
11 74 
11 77 
11 81 
11 88 
11 91 
11 99 
11 101 
11 110 
11 111 
11 121 
12 13 
12 14 
12 15 
12 16 
12 17 
12 18 
12 19 
12 20 
12 21 
12 22 
12 23 
12 28 
12 34 
12 43 
12 45 
12 47 
12 56 
12 57 
12 67 
12 70 
12 78 
12 88 
12 89 
12 96 
12 100 
12 108 
12 111 
12 115 
13 14 
13 15 
13 16 
13 17 
13 18 
13 19 
13 20 
13 21 
13 22 
13 24 
13 25 
13 35 
13 37 
13 45 
13 46 
13 57 
13 63 
13 68 
13 76 
13 79 
13 83 
13 90 
13 97 
13 101 
13 106 
13 112 
13 121 
14 15 
14 16 
14 17 
14 18 
14 19 
14 20 
14 21 
14 22 
14 25 
14 29 
14 36 
14 38 
14 47 
14 55 
14 58 
14 61 
14 69 
14 75 
14 80 
14 85 
14 89 
14 91 
14 102 
14 109 
14 112 
14 113 
15 16 
15 17 
15 18 
15 19 
15 20 
15 21 
15 22 
15 26 
15 32 
15 35 
15 37 
15 48 
15 51 
15 59 
15 66 
15 69 
15 70 
15 78 
15 81 
15 92 
15 93 
15 103 
15 107 
15 114 
15 116 
16 17 
16 18 
16 19 
16 20 
16 21 
16 22 
16 23 
16 27 
16 38 
16 40 
16 48 
16 49 
16 60 
16 65 
16 71 
16 77 
16 80 
16 82 
16 90 
16 93 
16 104 
16 105 
16 115 
16 119 
17 18 
17 19 
17 20 
17 21 
17 22 
17 28 
17 33 
17 39 
17 41 
17 46 
17 50 
17 61 
17 64 
17 71 
17 72 
17 83 
17 84 
17 94 
17 98 
17 103 
17 105 
17 113 
17 116 
18 19 
18 20 
18 21 
18 22 
18 29 
18 30 
18 40 
18 42 
18 51 
18 54 
18 58 
18 62 
18 68 
18 73 
18 82 
18 84 
18 95 
18 99 
18 100 
18 106 
18 114 
18 117 
19 20 
19 21 
19 22 
19 24 
19 30 
19 34 
19 41 
19 49 
19 52 
19 59 
19 63 
19 72 
19 74 
19 85 
19 86 
19 95 
19 96 
19 107 
19 110 
19 118 
19 120 
20 21 
20 22 
20 26 
20 31 
20 42 
20 44 
20 52 
20 53 
20 60 
20 64 
20 67 
20 75 
20 79 
20 86 
20 94 
20 97 
20 102 
20 108 
20 117 
20 119 
21 22 
21 27 
21 32 
21 39 
21 43 
21 53 
21 54 
21 62 
21 65 
21 74 
21 76 
21 81 
21 87 
21 91 
21 98 
21 101 
21 109 
21 111 
21 120 
22 31 
22 33 
22 36 
22 44 
22 50 
22 55 
22 56 
22 66 
22 73 
22 77 
22 87 
22 88 
22 92 
22 99 
22 104 
22 110 
22 118 
22 121 
23 24 
23 25 
23 26 
23 27 
23 28 
23 29 
23 30 
23 31 
23 32 
23 33 
23 34 
23 40 
23 45 
23 48 
23 56 
23 65 
23 67 
23 77 
23 78 
23 80 
23 89 
23 90 
23 100 
23 105 
23 111 
23 119 
24 25 
24 26 
24 27 
24 28 
24 29 
24 30 
24 31 
24 32 
24 33 
24 34 
24 35 
24 46 
24 49 
24 57 
24 59 
24 68 
24 72 
24 79 
24 86 
24 90 
24 95 
24 101 
24 110 
24 112 
24 120 
25 26 
25 27 
25 28 
25 29 
25 30 
25 31 
25 32 
25 33 
25 36 
25 37 
25 45 
25 47 
25 58 
25 63 
25 69 
25 76 
25 80 
25 83 
25 91 
25 97 
25 102 
25 106 
25 113 
25 121 
26 27 
26 28 
26 29 
26 30 
26 31 
26 32 
26 33 
26 37 
26 44 
26 48 
26 52 
26 59 
26 60 
26 67 
26 70 
26 79 
26 81 
26 92 
26 94 
26 102 
26 103 
26 114 
26 117 
27 28 
27 29 
27 30 
27 31 
27 32 
27 33 
27 38 
27 39 
27 49 
27 53 
27 60 
27 62 
27 71 
27 74 
27 81 
27 82 
27 91 
27 93 
27 101 
27 104 
27 111 
27 115 
28 29 
28 30 
28 31 
28 32 
28 33 
28 39 
28 43 
28 47 
28 50 
28 57 
28 61 
28 70 
28 72 
28 83 
28 88 
28 94 
28 96 
28 105 
28 108 
28 115 
28 116 
29 30 
29 31 
29 32 
29 33 
29 38 
29 40 
29 51 
29 55 
29 61 
29 62 
29 73 
29 75 
29 84 
29 85 
29 89 
29 95 
29 106 
29 109 
29 112 
29 117 
30 31 
30 32 
30 33 
30 41 
30 42 
30 52 
30 54 
30 58 
30 63 
30 68 
30 74 
30 82 
30 85 
30 96 
30 99 
30 100 
30 107 
30 114 
30 118 
31 32 
31 33 
31 36 
31 42 
31 50 
31 53 
31 56 
31 64 
31 73 
31 75 
31 86 
31 87 
31 92 
31 97 
31 104 
31 108 
31 118 
31 119 
32 33 
32 35 
32 43 
32 51 
32 54 
32 65 
32 66 
32 69 
32 76 
32 78 
32 87 
32 93 
32 98 
32 107 
32 109 
32 116 
32 120 
33 41 
33 44 
33 46 
33 55 
33 64 
33 66 
33 71 
33 77 
33 84 
33 88 
33 98 
33 99 
33 103 
33 110 
33 113 
33 121 
34 35 
34 36 
34 37 
34 38 
34 39 
34 40 
34 41 
34 42 
34 43 
34 44 
34 45 
34 49 
34 56 
34 59 
34 67 
34 72 
34 78 
34 86 
34 89 
34 95 
34 100 
34 110 
34 111 
34 120 
35 36 
35 37 
35 38 
35 39 
35 40 
35 41 
35 42 
35 43 
35 44 
35 46 
35 51 
35 57 
35 66 
35 68 
35 69 
35 78 
35 79 
35 90 
35 93 
35 101 
35 107 
35 112 
35 116 
36 37 
36 38 
36 39 
36 40 
36 41 
36 42 
36 43 
36 44 
36 47 
36 50 
36 56 
36 58 
36 69 
36 73 
36 80 
36 87 
36 91 
36 92 
36 102 
36 104 
36 113 
36 118 
37 38 
37 39 
37 40 
37 41 
37 42 
37 43 
37 44 
37 45 
37 48 
37 59 
37 63 
37 70 
37 76 
37 81 
37 83 
37 92 
37 97 
37 103 
37 106 
37 114 
37 121 
38 39 
38 40 
38 41 
38 42 
38 43 
38 44 
38 49 
38 55 
38 60 
38 61 
38 71 
38 75 
38 82 
38 85 
38 89 
38 93 
38 104 
38 109 
38 112 
38 115 
39 40 
39 41 
39 42 
39 43 
39 44 
39 50 
39 53 
39 61 
39 62 
39 72 
39 74 
39 81 
39 83 
39 91 
39 94 
39 101 
39 105 
39 111 
39 116 
40 41 
40 42 
40 43 
40 44 
40 48 
40 51 
40 62 
40 65 
40 73 
40 77 
40 80 
40 84 
40 90 
40 95 
40 105 
40 106 
40 117 
40 119 
41 42 
41 43 
41 44 
41 46 
41 52 
41 63 
41 64 
41 71 
41 74 
41 84 
41 85 
41 96 
41 98 
41 103 
41 107 
41 113 
41 118 
42 43 
42 44 
42 53 
42 54 
42 58 
42 64 
42 68 
42 75 
42 82 
42 86 
42 97 
42 99 
42 100 
42 108 
42 114 
42 119 
43 44 
43 47 
43 54 
43 57 
43 65 
43 70 
43 76 
43 87 
43 88 
43 96 
43 98 
43 108 
43 109 
43 115 
43 120 
44 52 
44 55 
44 60 
44 66 
44 67 
44 77 
44 79 
44 88 
44 94 
44 99 
44 102 
44 110 
44 117 
44 121 
45 46 
45 47 
45 48 
45 49 
45 50 
45 51 
45 52 
45 53 
45 54 
45 55 
45 56 
45 63 
45 67 
45 76 
45 78 
45 83 
45 89 
45 97 
45 100 
45 106 
45 111 
45 121 
46 47 
46 48 
46 49 
46 50 
46 51 
46 52 
46 53 
46 54 
46 55 
46 57 
46 64 
46 68 
46 71 
46 79 
46 84 
46 90 
46 98 
46 101 
46 103 
46 112 
46 113 
47 48 
47 49 
47 50 
47 51 
47 52 
47 53 
47 54 
47 55 
47 57 
47 58 
47 69 
47 70 
47 80 
47 88 
47 91 
47 96 
47 102 
47 108 
47 113 
47 115 
48 49 
48 50 
48 51 
48 52 
48 53 
48 54 
48 55 
48 59 
48 65 
48 70 
48 77 
48 80 
48 81 
48 90 
48 92 
48 103 
48 105 
48 114 
48 119 
49 50 
49 51 
49 52 
49 53 
49 54 
49 55 
49 59 
49 60 
49 71 
49 72 
49 82 
49 86 
49 93 
49 95 
49 104 
49 110 
49 115 
49 120 
50 51 
50 52 
50 53 
50 54 
50 55 
50 56 
50 61 
50 72 
50 73 
50 83 
50 87 
50 92 
50 94 
50 104 
50 105 
50 116 
50 118 
51 52 
51 53 
51 54 
51 55 
51 62 
51 66 
51 69 
51 73 
51 78 
51 84 
51 93 
51 95 
51 106 
51 107 
51 116 
51 117 
52 53 
52 54 
52 55 
52 60 
52 63 
52 67 
52 74 
52 79 
52 85 
52 94 
52 96 
52 102 
52 107 
52 117 
52 118 
53 54 
53 55 
53 62 
53 64 
53 74 
53 75 
53 81 
53 86 
53 91 
53 97 
53 101 
53 108 
53 111 
53 119 
54 55 
54 58 
54 65 
54 68 
54 76 
54 82 
54 87 
54 98 
54 99 
54 100 
54 109 
54 114 
54 120 
55 61 
55 66 
55 75 
55 77 
55 85 
55 88 
55 89 
55 99 
55 109 
55 110 
55 112 
55 121 
56 57 
56 58 
56 59 
56 60 
56 61 
56 62 
56 63 
56 64 
56 65 
56 66 
56 67 
56 73 
56 78 
56 87 
56 89 
56 92 
56 100 
56 104 
56 111 
56 118 
57 58 
57 59 
57 60 
57 61 
57 62 
57 63 
57 64 
57 65 
57 66 
57 68 
57 70 
57 79 
57 88 
57 90 
57 96 
57 101 
57 108 
57 112 
57 115 
58 59 
58 60 
58 61 
58 62 
58 63 
58 64 
58 65 
58 66 
58 68 
58 69 
58 80 
58 82 
58 91 
58 99 
58 100 
58 102 
58 113 
58 114 
59 60 
59 61 
59 62 
59 63 
59 64 
59 65 
59 66 
59 70 
59 72 
59 81 
59 86 
59 92 
59 95 
59 103 
59 110 
59 114 
59 120 
60 61 
60 62 
60 63 
60 64 
60 65 
60 66 
60 67 
60 71 
60 79 
60 82 
60 93 
60 94 
60 102 
60 104 
60 115 
60 117 
61 62 
61 63 
61 64 
61 65 
61 66 
61 72 
61 75 
61 83 
61 85 
61 89 
61 94 
61 105 
61 109 
61 112 
61 116 
62 63 
62 64 
62 65 
62 66 
62 73 
62 74 
62 81 
62 84 
62 91 
62 95 
62 101 
62 106 
62 111 
62 117 
63 64 
63 65 
63 66 
63 74 
63 76 
63 83 
63 85 
63 96 
63 97 
63 106 
63 107 
63 118 
63 121 
64 65 
64 66 
64 71 
64 75 
64 84 
64 86 
64 97 
64 98 
64 103 
64 108 
64 113 
64 119 
65 66 
65 76 
65 77 
65 80 
65 87 
65 90 
65 98 
65 105 
65 109 
65 119 
65 120 
66 69 
66 77 
66 78 
66 88 
66 93 
66 99 
66 107 
66 110 
66 116 
66 121 
67 68 
67 69 
67 70 
67 71 
67 72 
67 73 
67 74 
67 75 
67 76 
67 77 
67 78 
67 79 
67 89 
67 94 
67 100 
67 102 
67 111 
67 117 
68 69 
68 70 
68 71 
68 72 
68 73 
68 74 
68 75 
68 76 
68 77 
68 79 
68 82 
68 90 
68 99 
68 100 
68 101 
68 112 
68 114 
69 70 
69 71 
69 72 
69 73 
69 74 
69 75 
69 76 
69 77 
69 78 
69 80 
69 91 
69 93 
69 102 
69 107 
69 113 
69 116 
70 71 
70 72 
70 73 
70 74 
70 75 
70 76 
70 77 
70 81 
70 88 
70 92 
70 96 
70 103 
70 108 
70 114 
70 115 
71 72 
71 73 
71 74 
71 75 
71 76 
71 77 
71 82 
71 84 
71 93 
71 98 
71 103 
71 104 
71 113 
71 115 
72 73 
72 74 
72 75 
72 76 
72 77 
72 83 
72 86 
72 94 
72 95 
72 105 
72 110 
72 116 
72 120 
73 74 
73 75 
73 76 
73 77 
73 84 
73 87 
73 92 
73 95 
73 104 
73 106 
73 117 
73 118 
74 75 
74 76 
74 77 
74 81 
74 85 
74 91 
74 96 
74 101 
74 107 
74 111 
74 118 
75 76 
75 77 
75 85 
75 86 
75 89 
75 97 
75 108 
75 109 
75 112 
75 119 
76 77 
76 83 
76 87 
76 97 
76 98 
76 106 
76 109 
76 120 
76 121 
77 80 
77 88 
77 90 
77 99 
77 105 
77 110 
77 119 
77 121 
78 79 
78 80 
78 81 
78 82 
78 83 
78 84 
78 85 
78 86 
78 87 
78 88 
78 89 
78 93 
78 100 
78 107 
78 111 
78 116 
79 80 
79 81 
79 82 
79 83 
79 84 
79 85 
79 86 
79 87 
79 88 
79 90 
79 94 
79 101 
79 102 
79 112 
79 117 
80 81 
80 82 
80 83 
80 84 
80 85 
80 86 
80 87 
80 88 
80 90 
80 91 
80 102 
80 105 
80 113 
80 119 
81 82 
81 83 
81 84 
81 85 
81 86 
81 87 
81 88 
81 91 
81 92 
81 101 
81 103 
81 111 
81 114 
82 83 
82 84 
82 85 
82 86 
82 87 
82 88 
82 93 
82 99 
82 100 
82 104 
82 114 
82 115 
83 84 
83 85 
83 86 
83 87 
83 88 
83 94 
83 97 
83 105 
83 106 
83 116 
83 121 
84 85 
84 86 
84 87 
84 88 
84 95 
84 98 
84 103 
84 106 
84 113 
84 117 
85 86 
85 87 
85 88 
85 89 
85 96 
85 107 
85 109 
85 112 
85 118 
86 87 
86 88 
86 95 
86 97 
86 108 
86 110 
86 119 
86 120 
87 88 
87 92 
87 98 
87 104 
87 109 
87 118 
87 120 
88 96 
88 99 
88 108 
88 110 
88 115 
88 121 
89 90 
89 91 
89 92 
89 93 
89 94 
89 95 
89 96 
89 97 
89 98 
89 99 
89 100 
89 109 
89 111 
89 112 
90 91 
90 92 
90 93 
90 94 
90 95 
90 96 
90 97 
90 98 
90 99 
90 101 
90 105 
90 112 
90 119 
91 92 
91 93 
91 94 
91 95 
91 96 
91 97 
91 98 
91 99 
91 101 
91 102 
91 111 
91 113 
92 93 
92 94 
92 95 
92 96 
92 97 
92 98 
92 99 
92 103 
92 104 
92 114 
92 118 
93 94 
93 95 
93 96 
93 97 
93 98 
93 99 
93 104 
93 107 
93 115 
93 116 
94 95 
94 96 
94 97 
94 98 
94 99 
94 102 
94 105 
94 116 
94 117 
95 96 
95 97 
95 98 
95 99 
95 106 
95 110 
95 117 
95 120 
96 97 
96 98 
96 99 
96 107 
96 108 
96 115 
96 118 
97 98 
97 99 
97 106 
97 108 
97 119 
97 121 
98 99 
98 103 
98 109 
98 113 
98 120 
99 100 
99 110 
99 114 
99 121 
100 101 
100 102 
100 103 
100 104 
100 105 
100 106 
100 107 
100 108 
100 109 
100 110 
100 111 
100 114 
101 102 
101 103 
101 104 
101 105 
101 106 
101 107 
101 108 
101 109 
101 110 
101 111 
101 112 
102 103 
102 104 
102 105 
102 106 
102 107 
102 108 
102 109 
102 110 
102 113 
102 117 
103 104 
103 105 
103 106 
103 107 
103 108 
103 109 
103 110 
103 113 
103 114 
104 105 
104 106 
104 107 
104 108 
104 109 
104 110 
104 115 
104 118 
105 106 
105 107 
105 108 
105 109 
105 110 
105 116 
105 119 
106 107 
106 108 
106 109 
106 110 
106 117 
106 121 
107 108 
107 109 
107 110 
107 116 
107 118 
108 109 
108 110 
108 115 
108 119 
109 110 
109 112 
109 120 
110 120 
110 121 
111 112 
111 113 
111 114 
111 115 
111 116 
111 117 
111 118 
111 119 
111 120 
111 121 
112 113 
112 114 
112 115 
112 116 
112 117 
112 118 
112 119 
112 120 
112 121 
113 114 
113 115 
113 116 
113 117 
113 118 
113 119 
113 120 
113 121 
114 115 
114 116 
114 117 
114 118 
114 119 
114 120 
114 121 
115 116 
115 117 
115 118 
115 119 
115 120 
115 121 
116 117 
116 118 
116 119 
116 120 
116 121 
117 118 
117 119 
117 120 
117 121 
118 119 
118 120 
118 121 
119 120 
119 121 
120 121 
